0	8	1	0	1	6	4	6	20	20	20	20	20	20	20	20	20	20	20	20	20
0	4	0	1	4	0	4	6	18	18	18	18	18	18	18	19	19	19	19	20	20
0	0	1	1	2	4	3	4	14	19	19	19	19	19	19	19	19	19	19	19	19
0	1	6	3	4	3	7	6	11	16	17	18	18	18	18	17	18	18	18	18	18
0	1	5	0	1	3	6	3	9	11	13	14	14	15	16	17	18	16	16	19	17
